
Log started (V12.10.0.0) Fri Apr  9 00:22:35 2021


Problem 'asset.lp' read.
Read time = 0.00 sec. (0.09 ticks)
New value for default parallel thread count: 1
New value for time limit in seconds: 200
Version identifier: 12.10.0.0 | 2019-11-26 | 843d4de
CPXPARAM_Threads                                 1
CPXPARAM_TimeLimit                               200
Found incumbent of value -0.888577 after 0.00 sec. (0.05 ticks)
Tried aggregator 3 times.
MIP Presolve eliminated 260 rows and 127 columns.
MIP Presolve modified 799 coefficients.
Aggregator did 291 substitutions.
Reduced MIP has 378 rows, 433 columns, and 1716 nonzeros.
Reduced MIP has 371 binaries, 37 generals, 0 SOSs, and 0 indicators.
Presolve time = 0.00 sec. (3.88 ticks)
Probing fixed 23 vars, tightened 13 bounds.
Probing time = 0.00 sec. (1.04 ticks)
Cover probing fixed 0 vars, tightened 24 bounds.
Tried aggregator 1 time.
MIP Presolve eliminated 59 rows and 57 columns.
MIP Presolve modified 138 coefficients.
Reduced MIP has 319 rows, 376 columns, and 1365 nonzeros.
Reduced MIP has 327 binaries, 24 generals, 0 SOSs, and 0 indicators.
Presolve time = 0.00 sec. (1.29 ticks)
Probing time = 0.00 sec. (0.78 ticks)
Tried aggregator 1 time.
Detecting symmetries...
Reduced MIP has 319 rows, 376 columns, and 1365 nonzeros.
Reduced MIP has 327 binaries, 24 generals, 0 SOSs, and 0 indicators.
Presolve time = 0.00 sec. (0.95 ticks)
Probing time = 0.00 sec. (0.79 ticks)
Clique table members: 954.
MIP emphasis: balance optimality and feasibility.
MIP search method: dynamic search.
Parallel mode: none, using 1 thread.
Root relaxation solution time = 0.00 sec. (3.09 ticks)

        Nodes                                         Cuts/
   Node  Left     Objective  IInf  Best Integer    Best Bound    ItCnt     Gap

*     0+    0                           -0.8886      231.9770              --- 
      0     0      202.0604    89       -0.8886      202.0604      280     --- 
      0     0      189.4138    89       -0.8886     Cuts: 179      453     --- 
*     0+    0                          128.3106      189.4138            47.62%
      0     0      184.8082    89      128.3106     Cuts: 143      581   44.03%
*     0+    0                          158.2061      184.8082            16.81%
      0     0      183.6392    89      158.2061      Cuts: 85      676   16.08%
      0     0      183.3773    89      158.2061      Cuts: 49      724   15.91%
      0     0      182.2424    89      158.2061      Cuts: 50      808   15.19%
Detecting symmetries...
      0     0      181.9564    89      158.2061      Cuts: 61      843   15.01%
      0     0      181.6380    89      158.2061      Cuts: 60      889   14.81%
*     0+    0                          166.6643      181.6380             8.98%
      0     0      181.4885    89      166.6643      Cuts: 74      934    8.89%
      0     0      181.2083    89      166.6643      Cuts: 38      986    8.73%
*     0+    0                          179.2597      181.2083             1.09%
      0     0      181.0546    89      179.2597      Cuts: 76     1040    1.00%
*     0+    0                          179.2642      181.0546             1.00%
      0     0      180.9026    89      179.2642      Cuts: 56     1107    0.91%
      0     0      180.7687    89      179.2642      Cuts: 50     1140    0.84%
      0     0      180.1886    89      179.2642      Cuts: 48     1271    0.52%
      0     0      180.0215    89      179.2642      Cuts: 56     1419    0.42%
Detecting symmetries...

Repeating presolve.
Tried aggregator 3 times.
MIP Presolve eliminated 60 rows and 106 columns.
MIP Presolve modified 68 coefficients.
Aggregator did 6 substitutions.
Reduced MIP has 253 rows, 264 columns, and 947 nonzeros.
Reduced MIP has 228 binaries, 15 generals, 0 SOSs, and 0 indicators.
Presolve time = 0.00 sec. (1.03 ticks)
Probing fixed 19 vars, tightened 2 bounds.
Probing time = 0.00 sec. (0.47 ticks)
Cover probing fixed 0 vars, tightened 14 bounds.
Tried aggregator 3 times.
MIP Presolve eliminated 28 rows and 22 columns.
MIP Presolve modified 154 coefficients.
Aggregator did 2 substitutions.
Reduced MIP has 223 rows, 239 columns, and 829 nonzeros.
Reduced MIP has 207 binaries, 12 generals, 0 SOSs, and 0 indicators.
Presolve time = 0.00 sec. (1.83 ticks)
Probing fixed 0 vars, tightened 1 bounds.
Probing time = 0.00 sec. (0.41 ticks)
Tried aggregator 2 times.
Detecting symmetries...
MIP Presolve eliminated 1 rows and 1 columns.
MIP Presolve modified 13 coefficients.
Aggregator did 1 substitutions.
Reduced MIP has 221 rows, 237 columns, and 825 nonzeros.
Reduced MIP has 205 binaries, 12 generals, 0 SOSs, and 0 indicators.
Presolve time = 0.00 sec. (1.13 ticks)
Represolve time = 0.01 sec. (7.66 ticks)
Probing time = 0.00 sec. (0.39 ticks)
Cover probing fixed 0 vars, tightened 1 bounds.
Clique table members: 566.
MIP emphasis: balance optimality and feasibility.
MIP search method: dynamic search.
Parallel mode: none, using 1 thread.
Root relaxation solution time = 0.00 sec. (3.74 ticks)

        Nodes                                         Cuts/
   Node  Left     Objective  IInf  Best Integer    Best Bound    ItCnt     Gap

*     0+    0                          179.2642      180.0215             0.42%
      0     0      179.2821    69      179.2642      179.2821     1660    0.01%

Clique cuts applied:  17
Cover cuts applied:  2
Implied bound cuts applied:  23
Flow cuts applied:  3
Mixed integer rounding cuts applied:  15
Zero-half cuts applied:  13
Gomory fractional cuts applied:  4

Root node processing (before b&c):
  Real time             =    0.13 sec. (109.11 ticks)
Sequential b&c:
  Real time             =    0.00 sec. (0.00 ticks)
                          ------------
Total (root+branch&cut) =    0.13 sec. (109.11 ticks)

Solution pool: 6 solutions saved.

MIP - Integer optimal, tolerance (0.0001/1e-06):  Objective =  1.7926419516e+02
Current MIP best bound =  1.7928205720e+02 (gap = 0.017862, 0.01%)
Solution time =    0.13 sec.  Iterations = 1660  Nodes = 0 (1)
Deterministic time = 109.12 ticks  (851.06 ticks/sec)


Incumbent solution
Variable Name           Solution Value
F                           210.000000
f1                            0.935805
f2                           29.800000
y59                           1.000000
y70                           1.000000
y90                           1.000000
y156                          1.000000
y79                           1.000000
y84                           1.000000
y114                          1.000000
y134                          1.000000
y7                            1.000000
y187                          1.000000
y129                          1.000000
y10                           1.000000
y66                           1.000000
y22                           1.000000
y5                            1.000000
s16                           6.000000
s37                           6.000000
s58                           6.000000
s59                           6.304616
s60                           6.000000
s64                           6.000000
s70                           6.679968
s89                           6.000000
s90                           6.235225
s100                          6.000000
s111                          6.000000
s116                          6.000000
s126                          6.000000
s131                          6.000000
s148                          6.000000
s156                          6.694989
s79                           6.364653
s84                           7.330022
s114                          7.470062
s134                          6.968350
s77                           6.580000
s7                            7.601380
s187                          7.622666
s129                          7.692450
s10                           7.749303
s66                           7.916705
s172                          7.120000
s22                           7.921537
s5                            8.099837
s143                          7.200000
x167x79x1                     1.000000
x113x156x1                    1.000000
x135x70x1                     1.000000
x145x129x1                    1.000000
x153x187x1                    1.000000
x153x66x1                     1.000000
x21x90x1                      1.000000
x188x79x1                     1.000000
x167x156x2                    1.000000
x162x134x2                    1.000000
x135x59x2                     1.000000
x53x84x2                      1.000000
x53x114x2                     1.000000
x83x84x2                      1.000000
x186x59x2                     1.000000
x113x70x3                     1.000000
x162x134x3                    1.000000
x145x7x3                      1.000000
x83x129x3                     1.000000
x188x90x3                     1.000000
x59x0x2                       1.000000
x59x187x2                     1.000000
x70x66x1                      1.000000
x70x22x3                      1.000000
x90x10x1                      1.000000
x90x7x3                       1.000000
x156x5x1                      1.000000
x156x22x2                     1.000000
x79x114x1                     1.000000
x79x10x1                      1.000000
x84x0x2                       2.000000
x114x0x1                      1.000000
x114x0x2                      1.000000
x134x0x2                      1.000000
x134x5x3                      1.000000
x7x0x3                        2.000000
x187x0x1                      1.000000
x187x0x2                      1.000000
x129x0x1                      1.000000
x129x0x3                      1.000000
x10x0x1                       2.000000
x66x0x1                       2.000000
x22x0x2                       1.000000
x22x0x3                       1.000000
x5x0x1                        1.000000
x5x0x3                        1.000000
s167                          4.791224
z167z156z2                    1.000000
z167z79z1                     1.000000
z167z10z1                     1.000000
z167z66z1                     1.000000
s113                          5.174274
z113z70z3                     1.000000
z113z156z1                    1.000000
z113z7z3                      1.000000
z113z10z1                     1.000000
z113z66z1                     1.000000
z113z172z3                    1.000000
s162                          5.404334
z162z134z2                    1.000000
z162z134z3                    1.000000
z162z172z3                    1.000000
s135                          5.073388
z135z59z2                     1.000000
z135z70z1                     1.000000
z135z10z1                     1.000000
z135z66z1                     1.000000
s145                          5.910404
z145z7z3                      1.000000
z145z129z1                    1.000000
s53                           5.956302
z53z84z2                      1.000000
z53z114z2                     1.000000
s83                           5.980291
z83z84z2                      1.000000
z83z129z3                     1.000000
s153                          5.950000
z153z187z1                    1.000000
z153z66z1                     1.000000
s21                           4.615030
z21z90z1                      1.000000
z21z10z1                      1.000000
z21z66z1                      1.000000
s186                          4.677780
z186z59z2                     1.000000
z186z84z2                     1.000000
z186z77z2                     1.000000
s188                          4.692530
z188z90z3                     1.000000
z188z79z1                     1.000000
z188z7z3                      1.000000
z188z10z1                     1.000000
z188z66z1                     1.000000
z188z172z3                    1.000000
z59z187z2                     1.000000
z70z66z1                      1.000000
z70z22z3                      1.000000
z90z7z3                       1.000000
z90z10z1                      1.000000
z156z22z2                     1.000000
z156z5z1                      1.000000
z79z114z1                     1.000000
z79z10z1                      1.000000
z134z5z3                      1.000000
All other variables in the range 1-853 are 0.
